\ Model sp_10_1
\ LP format - for model browsing. Use MPS format to capture full model detail.
\ Signature: 0xe108111d0dabced
Minimize
  26.93 y[0,2] + 65.19 y[0,3] + 23.41 y[0,5] + 76.9 y[0,6] + 80.53 y[0,7]
   + 63.89 y[0,8] + 69.87 y[0,9] + 80.53 y[1,2] + 43.68 y[1,3] + 4 y[1,4]
   + 36.4 y[1,6] + 48.37 y[1,8] + 52.5 y[1,9] + 26.93 y[2,0] + 80.53 y[2,1]
   + 38.95 y[2,3] + 6.08 y[2,5] + 58.14 y[2,6] + 82.04 y[2,7]
   + 47.17 y[2,8] + 56.29 y[2,9] + 65.19 y[3,0] + 43.68 y[3,1]
   + 38.95 y[3,2] + 44.94 y[3,4] + 44.2 y[3,5] + 36.4 y[3,6] + 34.99 y[3,8]
   + 46.04 y[3,9] + 4 y[4,1] + 44.94 y[4,3] + 40.16 y[4,6] + 51.88 y[4,8]
   + 56.32 y[4,9] + 23.41 y[5,0] + 6.08 y[5,2] + 44.2 y[5,3] + 64.2 y[5,6]
   + 53.08 y[5,8] + 61.98 y[5,9] + 76.9 y[6,0] + 36.4 y[6,1] + 58.14 y[6,2]
   + 36.4 y[6,3] + 40.16 y[6,4] + 64.2 y[6,5] + 61.01 y[6,7] + 13.6 y[6,8]
   + 16.28 y[6,9] + 80.53 y[7,0] + 82.04 y[7,2] + 61.01 y[7,6]
   + 54.34 y[7,8] + 45.18 y[7,9] + 63.89 y[8,0] + 48.37 y[8,1]
   + 47.17 y[8,2] + 34.99 y[8,3] + 51.88 y[8,4] + 53.08 y[8,5]
   + 13.6 y[8,6] + 54.34 y[8,7] + 11.31 y[8,9] + 69.87 y[9,0] + 52.5 y[9,1]
   + 56.29 y[9,2] + 46.04 y[9,3] + 56.32 y[9,4] + 61.98 y[9,5]
   + 16.28 y[9,6] + 45.18 y[9,7] + 11.31 y[9,8] + 2.693 r[0,2]
   + 6.519 r[0,3] + 2.341 r[0,5] + 7.69 r[0,6] + 8.053 r[0,7]
   + 6.389 r[0,8] + 6.987 r[0,9] + 8.053 r[1,2] + 4.368 r[1,3] + 0.4 r[1,4]
   + 3.64 r[1,6] + 4.837 r[1,8] + 5.25 r[1,9] + 2.693 r[2,0] + 8.053 r[2,1]
   + 3.895 r[2,3] + 0.608 r[2,5] + 5.814 r[2,6] + 8.204 r[2,7]
   + 4.717 r[2,8] + 5.629 r[2,9] + 6.519 r[3,0] + 4.368 r[3,1]
   + 3.895 r[3,2] + 4.494 r[3,4] + 4.42 r[3,5] + 3.64 r[3,6] + 3.499 r[3,8]
   + 4.604 r[3,9] + 0.4 r[4,1] + 4.494 r[4,3] + 4.016 r[4,6] + 5.188 r[4,8]
   + 5.632 r[4,9] + 2.341 r[5,0] + 0.608 r[5,2] + 4.42 r[5,3] + 6.42 r[5,6]
   + 5.308 r[5,8] + 6.198 r[5,9] + 7.69 r[6,0] + 3.64 r[6,1] + 5.814 r[6,2]
   + 3.64 r[6,3] + 4.016 r[6,4] + 6.42 r[6,5] + 6.101 r[6,7] + 1.36 r[6,8]
   + 1.628 r[6,9] + 8.053 r[7,0] + 8.204 r[7,2] + 6.101 r[7,6]
   + 5.434 r[7,8] + 4.518 r[7,9] + 6.389 r[8,0] + 4.837 r[8,1]
   + 4.717 r[8,2] + 3.499 r[8,3] + 5.188 r[8,4] + 5.308 r[8,5]
   + 1.36 r[8,6] + 5.434 r[8,7] + 1.131 r[8,9] + 6.987 r[9,0] + 5.25 r[9,1]
   + 5.629 r[9,2] + 4.604 r[9,3] + 5.632 r[9,4] + 6.198 r[9,5]
   + 1.628 r[9,6] + 4.518 r[9,7] + 1.131 r[9,8]
Subject To
 flow_cons_inner_nodes[1]: - y[1,2] - y[1,3] - y[1,4] - y[1,6] - y[1,8]
   - y[1,9] + y[2,1] + y[3,1] + y[4,1] + y[6,1] + y[8,1] + y[9,1] = 0
 flow_cons_inner_nodes[2]: y[0,2] + y[1,2] - y[2,0] - y[2,1] - y[2,3]
   - y[2,5] - y[2,6] - y[2,7] - y[2,8] - y[2,9] + y[3,2] + y[5,2] + y[6,2]
   + y[7,2] + y[8,2] + y[9,2] = 0
 flow_cons_inner_nodes[3]: y[0,3] + y[1,3] + y[2,3] - y[3,0] - y[3,1]
   - y[3,2] - y[3,4] - y[3,5] - y[3,6] - y[3,8] - y[3,9] + y[4,3] + y[5,3]
   + y[6,3] + y[8,3] + y[9,3] = 0
 flow_cons_inner_nodes[5]: y[0,5] + y[2,5] + y[3,5] - y[5,0] - y[5,2]
   - y[5,3] - y[5,6] - y[5,8] - y[5,9] + y[6,5] + y[8,5] + y[9,5] = 0
 flow_cons_inner_nodes[6]: y[0,6] + y[1,6] + y[2,6] + y[3,6] + y[4,6]
   + y[5,6] - y[6,0] - y[6,1] - y[6,2] - y[6,3] - y[6,4] - y[6,5] - y[6,7]
   - y[6,8] - y[6,9] + y[7,6] + y[8,6] + y[9,6] = 0
 flow_cons_inner_nodes[7]: y[0,7] + y[2,7] + y[6,7] - y[7,0] - y[7,2]
   - y[7,6] - y[7,8] - y[7,9] + y[8,7] + y[9,7] = 0
 flow_cons_inner_nodes[8]: y[0,8] + y[1,8] + y[2,8] + y[3,8] + y[4,8]
   + y[5,8] + y[6,8] + y[7,8] - y[8,0] - y[8,1] - y[8,2] - y[8,3] - y[8,4]
   - y[8,5] - y[8,6] - y[8,7] - y[8,9] + y[9,8] = 0
 flow_cons_inner_nodes[9]: y[0,9] + y[1,9] + y[2,9] + y[3,9] + y[4,9]
   + y[5,9] + y[6,9] + y[7,9] + y[8,9] - y[9,0] - y[9,1] - y[9,2] - y[9,3]
   - y[9,4] - y[9,5] - y[9,6] - y[9,7] - y[9,8] = 0
 flow_cons_source: y[0,2] + y[0,3] + y[0,5] + y[0,6] + y[0,7] + y[0,8]
   + y[0,9] - y[2,0] - y[3,0] - y[5,0] - y[6,0] - y[7,0] - y[8,0] - y[9,0]
   = 1
 flow_cons_target: y[1,4] + y[3,4] - y[4,1] - y[4,3] - y[4,6] - y[4,8]
   - y[4,9] + y[6,4] + y[8,4] + y[9,4] = 1
 primal_lower: - 0.57 y[0,2] - 3.02 y[0,3] - 0.66 y[0,5] - 1.19 y[0,6]
   - 1.62 y[0,7] - 4.26 y[0,8] - 3.3 y[0,9] - 2.68 y[1,2] - 0.14 y[1,3]
   - 3.64 y[1,4] - 1.96 y[1,6] - 3.98 y[1,8] - 1.26 y[1,9] - 0.28 y[2,0]
   - 4.3 y[2,1] - 1.1 y[2,3] - 2.01 y[2,5] - 1.57 y[2,6] - 0.38 y[2,7]
   - 4.18 y[2,8] - 4.21 y[2,9] - 4.82 y[3,0] - 1.91 y[3,1] - 4.73 y[3,2]
   - 2.21 y[3,4] - 3.32 y[3,5] - 0.41 y[3,6] - 4.45 y[3,8] - 1.48 y[3,9]
   - 1.3 y[4,1] - 0.03 y[4,3] - 2.69 y[4,6] - 2.36 y[4,8] - 3.16 y[4,9]
   - 4.85 y[5,0] - 4.51 y[5,2] - 4.51 y[5,3] - 2.6 y[5,6] - 0.52 y[5,8]
   - 0.9 y[5,9] - 4.73 y[6,0] - 2.04 y[6,1] - 4.29 y[6,2] - 3.33 y[6,3]
   - 3.12 y[6,4] - 1.37 y[6,5] - 4.45 y[6,7] - 1.03 y[6,8] - 2.01 y[6,9]
   - 4.93 y[7,0] - 3.65 y[7,2] - 2.21 y[7,6] - 2.78 y[7,8] - 2.04 y[7,9]
   - 3.6 y[8,0] - 1.98 y[8,1] - 3.32 y[8,2] - 3.49 y[8,3] - 3.02 y[8,4]
   - 2.68 y[8,5] - 1.02 y[8,6] - 0.99 y[8,7] - 3.95 y[8,9] - 1.44 y[9,0]
   - 3.25 y[9,1] - 1.49 y[9,2] - 0.72 y[9,3] - 2 y[9,4] - 1.54 y[9,5]
   - 1.21 y[9,6] - 2.92 y[9,7] - 1.22 y[9,8] + 58 u[0,2] + 35 u[0,3]
   + 35 u[0,5] + 51 u[0,6] + 73 u[0,7] + 49 u[0,8] + 30 u[0,9] + 85 u[1,2]
   + 39 u[1,3] + 82 u[1,4] + 92 u[1,6] + 58 u[1,8] + 4 u[1,9] + 58 u[2,0]
   + 90 u[2,1] + 76 u[2,3] + 8 u[2,5] + 95 u[2,6] + 57 u[2,7] + 67 u[2,8]
   + 18 u[2,9] + 96 u[3,0] + 70 u[3,1] + 28 u[3,2] + 55 u[3,4] + 24 u[3,5]
   + 95 u[3,6] + 11 u[3,8] + 95 u[3,9] + 24 u[4,1] + 3 u[4,3] + 77 u[4,6]
   + 68 u[4,8] + 51 u[4,9] + 23 u[5,0] + 63 u[5,2] + 96 u[5,3] + 27 u[5,6]
   + 29 u[5,8] + 62 u[5,9] + 100 u[6,0] + 6 u[6,1] + 42 u[6,2] + 88 u[6,3]
   + 27 u[6,4] + 25 u[6,5] + 21 u[6,7] + 85 u[6,8] + 83 u[6,9] + 58 u[7,0]
   + 19 u[7,2] + 71 u[7,6] + 33 u[7,8] + 69 u[7,9] + 78 u[8,0] + 80 u[8,1]
   + 68 u[8,2] + 71 u[8,3] + 46 u[8,4] + 37 u[8,5] + 52 u[8,6] + 54 u[8,7]
   + 98 u[8,9] + 9 u[9,0] + 74 u[9,1] + 65 u[9,2] + 100 u[9,3] + 40 u[9,4]
   + 59 u[9,5] + 56 u[9,6] + 20 u[9,7] + 38 u[9,8] <= 357
 mccormick1[0,2]: - u[0,2] + r[0,2] <= 0
 mccormick1[0,3]: - u[0,3] + r[0,3] <= 0
 mccormick1[0,5]: - u[0,5] + r[0,5] <= 0
 mccormick1[0,6]: - u[0,6] + r[0,6] <= 0
 mccormick1[0,7]: - u[0,7] + r[0,7] <= 0
 mccormick1[0,8]: - u[0,8] + r[0,8] <= 0
 mccormick1[0,9]: - u[0,9] + r[0,9] <= 0
 mccormick1[1,2]: - u[1,2] + r[1,2] <= 0
 mccormick1[1,3]: - u[1,3] + r[1,3] <= 0
 mccormick1[1,4]: - u[1,4] + r[1,4] <= 0
 mccormick1[1,6]: - u[1,6] + r[1,6] <= 0
 mccormick1[1,8]: - u[1,8] + r[1,8] <= 0
 mccormick1[1,9]: - u[1,9] + r[1,9] <= 0
 mccormick1[2,0]: - u[2,0] + r[2,0] <= 0
 mccormick1[2,1]: - u[2,1] + r[2,1] <= 0
 mccormick1[2,3]: - u[2,3] + r[2,3] <= 0
 mccormick1[2,5]: - u[2,5] + r[2,5] <= 0
 mccormick1[2,6]: - u[2,6] + r[2,6] <= 0
 mccormick1[2,7]: - u[2,7] + r[2,7] <= 0
 mccormick1[2,8]: - u[2,8] + r[2,8] <= 0
 mccormick1[2,9]: - u[2,9] + r[2,9] <= 0
 mccormick1[3,0]: - u[3,0] + r[3,0] <= 0
 mccormick1[3,1]: - u[3,1] + r[3,1] <= 0
 mccormick1[3,2]: - u[3,2] + r[3,2] <= 0
 mccormick1[3,4]: - u[3,4] + r[3,4] <= 0
 mccormick1[3,5]: - u[3,5] + r[3,5] <= 0
 mccormick1[3,6]: - u[3,6] + r[3,6] <= 0
 mccormick1[3,8]: - u[3,8] + r[3,8] <= 0
 mccormick1[3,9]: - u[3,9] + r[3,9] <= 0
 mccormick1[4,1]: - u[4,1] + r[4,1] <= 0
 mccormick1[4,3]: - u[4,3] + r[4,3] <= 0
 mccormick1[4,6]: - u[4,6] + r[4,6] <= 0
 mccormick1[4,8]: - u[4,8] + r[4,8] <= 0
 mccormick1[4,9]: - u[4,9] + r[4,9] <= 0
 mccormick1[5,0]: - u[5,0] + r[5,0] <= 0
 mccormick1[5,2]: - u[5,2] + r[5,2] <= 0
 mccormick1[5,3]: - u[5,3] + r[5,3] <= 0
 mccormick1[5,6]: - u[5,6] + r[5,6] <= 0
 mccormick1[5,8]: - u[5,8] + r[5,8] <= 0
 mccormick1[5,9]: - u[5,9] + r[5,9] <= 0
 mccormick1[6,0]: - u[6,0] + r[6,0] <= 0
 mccormick1[6,1]: - u[6,1] + r[6,1] <= 0
 mccormick1[6,2]: - u[6,2] + r[6,2] <= 0
 mccormick1[6,3]: - u[6,3] + r[6,3] <= 0
 mccormick1[6,4]: - u[6,4] + r[6,4] <= 0
 mccormick1[6,5]: - u[6,5] + r[6,5] <= 0
 mccormick1[6,7]: - u[6,7] + r[6,7] <= 0
 mccormick1[6,8]: - u[6,8] + r[6,8] <= 0
 mccormick1[6,9]: - u[6,9] + r[6,9] <= 0
 mccormick1[7,0]: - u[7,0] + r[7,0] <= 0
 mccormick1[7,2]: - u[7,2] + r[7,2] <= 0
 mccormick1[7,6]: - u[7,6] + r[7,6] <= 0
 mccormick1[7,8]: - u[7,8] + r[7,8] <= 0
 mccormick1[7,9]: - u[7,9] + r[7,9] <= 0
 mccormick1[8,0]: - u[8,0] + r[8,0] <= 0
 mccormick1[8,1]: - u[8,1] + r[8,1] <= 0
 mccormick1[8,2]: - u[8,2] + r[8,2] <= 0
 mccormick1[8,3]: - u[8,3] + r[8,3] <= 0
 mccormick1[8,4]: - u[8,4] + r[8,4] <= 0
 mccormick1[8,5]: - u[8,5] + r[8,5] <= 0
 mccormick1[8,6]: - u[8,6] + r[8,6] <= 0
 mccormick1[8,7]: - u[8,7] + r[8,7] <= 0
 mccormick1[8,9]: - u[8,9] + r[8,9] <= 0
 mccormick1[9,0]: - u[9,0] + r[9,0] <= 0
 mccormick1[9,1]: - u[9,1] + r[9,1] <= 0
 mccormick1[9,2]: - u[9,2] + r[9,2] <= 0
 mccormick1[9,3]: - u[9,3] + r[9,3] <= 0
 mccormick1[9,4]: - u[9,4] + r[9,4] <= 0
 mccormick1[9,5]: - u[9,5] + r[9,5] <= 0
 mccormick1[9,6]: - u[9,6] + r[9,6] <= 0
 mccormick1[9,7]: - u[9,7] + r[9,7] <= 0
 mccormick1[9,8]: - u[9,8] + r[9,8] <= 0
 mccormick2[0,2]: - y[0,2] + r[0,2] <= 0
 mccormick2[0,3]: - y[0,3] + r[0,3] <= 0
 mccormick2[0,5]: - y[0,5] + r[0,5] <= 0
 mccormick2[0,6]: - y[0,6] + r[0,6] <= 0
 mccormick2[0,7]: - y[0,7] + r[0,7] <= 0
 mccormick2[0,8]: - y[0,8] + r[0,8] <= 0
 mccormick2[0,9]: - y[0,9] + r[0,9] <= 0
 mccormick2[1,2]: - y[1,2] + r[1,2] <= 0
 mccormick2[1,3]: - y[1,3] + r[1,3] <= 0
 mccormick2[1,4]: - y[1,4] + r[1,4] <= 0
 mccormick2[1,6]: - y[1,6] + r[1,6] <= 0
 mccormick2[1,8]: - y[1,8] + r[1,8] <= 0
 mccormick2[1,9]: - y[1,9] + r[1,9] <= 0
 mccormick2[2,0]: - y[2,0] + r[2,0] <= 0
 mccormick2[2,1]: - y[2,1] + r[2,1] <= 0
 mccormick2[2,3]: - y[2,3] + r[2,3] <= 0
 mccormick2[2,5]: - y[2,5] + r[2,5] <= 0
 mccormick2[2,6]: - y[2,6] + r[2,6] <= 0
 mccormick2[2,7]: - y[2,7] + r[2,7] <= 0
 mccormick2[2,8]: - y[2,8] + r[2,8] <= 0
 mccormick2[2,9]: - y[2,9] + r[2,9] <= 0
 mccormick2[3,0]: - y[3,0] + r[3,0] <= 0
 mccormick2[3,1]: - y[3,1] + r[3,1] <= 0
 mccormick2[3,2]: - y[3,2] + r[3,2] <= 0
 mccormick2[3,4]: - y[3,4] + r[3,4] <= 0
 mccormick2[3,5]: - y[3,5] + r[3,5] <= 0
 mccormick2[3,6]: - y[3,6] + r[3,6] <= 0
 mccormick2[3,8]: - y[3,8] + r[3,8] <= 0
 mccormick2[3,9]: - y[3,9] + r[3,9] <= 0
 mccormick2[4,1]: - y[4,1] + r[4,1] <= 0
 mccormick2[4,3]: - y[4,3] + r[4,3] <= 0
 mccormick2[4,6]: - y[4,6] + r[4,6] <= 0
 mccormick2[4,8]: - y[4,8] + r[4,8] <= 0
 mccormick2[4,9]: - y[4,9] + r[4,9] <= 0
 mccormick2[5,0]: - y[5,0] + r[5,0] <= 0
 mccormick2[5,2]: - y[5,2] + r[5,2] <= 0
 mccormick2[5,3]: - y[5,3] + r[5,3] <= 0
 mccormick2[5,6]: - y[5,6] + r[5,6] <= 0
 mccormick2[5,8]: - y[5,8] + r[5,8] <= 0
 mccormick2[5,9]: - y[5,9] + r[5,9] <= 0
 mccormick2[6,0]: - y[6,0] + r[6,0] <= 0
 mccormick2[6,1]: - y[6,1] + r[6,1] <= 0
 mccormick2[6,2]: - y[6,2] + r[6,2] <= 0
 mccormick2[6,3]: - y[6,3] + r[6,3] <= 0
 mccormick2[6,4]: - y[6,4] + r[6,4] <= 0
 mccormick2[6,5]: - y[6,5] + r[6,5] <= 0
 mccormick2[6,7]: - y[6,7] + r[6,7] <= 0
 mccormick2[6,8]: - y[6,8] + r[6,8] <= 0
 mccormick2[6,9]: - y[6,9] + r[6,9] <= 0
 mccormick2[7,0]: - y[7,0] + r[7,0] <= 0
 mccormick2[7,2]: - y[7,2] + r[7,2] <= 0
 mccormick2[7,6]: - y[7,6] + r[7,6] <= 0
 mccormick2[7,8]: - y[7,8] + r[7,8] <= 0
 mccormick2[7,9]: - y[7,9] + r[7,9] <= 0
 mccormick2[8,0]: - y[8,0] + r[8,0] <= 0
 mccormick2[8,1]: - y[8,1] + r[8,1] <= 0
 mccormick2[8,2]: - y[8,2] + r[8,2] <= 0
 mccormick2[8,3]: - y[8,3] + r[8,3] <= 0
 mccormick2[8,4]: - y[8,4] + r[8,4] <= 0
 mccormick2[8,5]: - y[8,5] + r[8,5] <= 0
 mccormick2[8,6]: - y[8,6] + r[8,6] <= 0
 mccormick2[8,7]: - y[8,7] + r[8,7] <= 0
 mccormick2[8,9]: - y[8,9] + r[8,9] <= 0
 mccormick2[9,0]: - y[9,0] + r[9,0] <= 0
 mccormick2[9,1]: - y[9,1] + r[9,1] <= 0
 mccormick2[9,2]: - y[9,2] + r[9,2] <= 0
 mccormick2[9,3]: - y[9,3] + r[9,3] <= 0
 mccormick2[9,4]: - y[9,4] + r[9,4] <= 0
 mccormick2[9,5]: - y[9,5] + r[9,5] <= 0
 mccormick2[9,6]: - y[9,6] + r[9,6] <= 0
 mccormick2[9,7]: - y[9,7] + r[9,7] <= 0
 mccormick2[9,8]: - y[9,8] + r[9,8] <= 0
 mccormick3[0,2]: - y[0,2] - u[0,2] + r[0,2] >= -1
 mccormick3[0,3]: - y[0,3] - u[0,3] + r[0,3] >= -1
 mccormick3[0,5]: - y[0,5] - u[0,5] + r[0,5] >= -1
 mccormick3[0,6]: - y[0,6] - u[0,6] + r[0,6] >= -1
 mccormick3[0,7]: - y[0,7] - u[0,7] + r[0,7] >= -1
 mccormick3[0,8]: - y[0,8] - u[0,8] + r[0,8] >= -1
 mccormick3[0,9]: - y[0,9] - u[0,9] + r[0,9] >= -1
 mccormick3[1,2]: - y[1,2] - u[1,2] + r[1,2] >= -1
 mccormick3[1,3]: - y[1,3] - u[1,3] + r[1,3] >= -1
 mccormick3[1,4]: - y[1,4] - u[1,4] + r[1,4] >= -1
 mccormick3[1,6]: - y[1,6] - u[1,6] + r[1,6] >= -1
 mccormick3[1,8]: - y[1,8] - u[1,8] + r[1,8] >= -1
 mccormick3[1,9]: - y[1,9] - u[1,9] + r[1,9] >= -1
 mccormick3[2,0]: - y[2,0] - u[2,0] + r[2,0] >= -1
 mccormick3[2,1]: - y[2,1] - u[2,1] + r[2,1] >= -1
 mccormick3[2,3]: - y[2,3] - u[2,3] + r[2,3] >= -1
 mccormick3[2,5]: - y[2,5] - u[2,5] + r[2,5] >= -1
 mccormick3[2,6]: - y[2,6] - u[2,6] + r[2,6] >= -1
 mccormick3[2,7]: - y[2,7] - u[2,7] + r[2,7] >= -1
 mccormick3[2,8]: - y[2,8] - u[2,8] + r[2,8] >= -1
 mccormick3[2,9]: - y[2,9] - u[2,9] + r[2,9] >= -1
 mccormick3[3,0]: - y[3,0] - u[3,0] + r[3,0] >= -1
 mccormick3[3,1]: - y[3,1] - u[3,1] + r[3,1] >= -1
 mccormick3[3,2]: - y[3,2] - u[3,2] + r[3,2] >= -1
 mccormick3[3,4]: - y[3,4] - u[3,4] + r[3,4] >= -1
 mccormick3[3,5]: - y[3,5] - u[3,5] + r[3,5] >= -1
 mccormick3[3,6]: - y[3,6] - u[3,6] + r[3,6] >= -1
 mccormick3[3,8]: - y[3,8] - u[3,8] + r[3,8] >= -1
 mccormick3[3,9]: - y[3,9] - u[3,9] + r[3,9] >= -1
 mccormick3[4,1]: - y[4,1] - u[4,1] + r[4,1] >= -1
 mccormick3[4,3]: - y[4,3] - u[4,3] + r[4,3] >= -1
 mccormick3[4,6]: - y[4,6] - u[4,6] + r[4,6] >= -1
 mccormick3[4,8]: - y[4,8] - u[4,8] + r[4,8] >= -1
 mccormick3[4,9]: - y[4,9] - u[4,9] + r[4,9] >= -1
 mccormick3[5,0]: - y[5,0] - u[5,0] + r[5,0] >= -1
 mccormick3[5,2]: - y[5,2] - u[5,2] + r[5,2] >= -1
 mccormick3[5,3]: - y[5,3] - u[5,3] + r[5,3] >= -1
 mccormick3[5,6]: - y[5,6] - u[5,6] + r[5,6] >= -1
 mccormick3[5,8]: - y[5,8] - u[5,8] + r[5,8] >= -1
 mccormick3[5,9]: - y[5,9] - u[5,9] + r[5,9] >= -1
 mccormick3[6,0]: - y[6,0] - u[6,0] + r[6,0] >= -1
 mccormick3[6,1]: - y[6,1] - u[6,1] + r[6,1] >= -1
 mccormick3[6,2]: - y[6,2] - u[6,2] + r[6,2] >= -1
 mccormick3[6,3]: - y[6,3] - u[6,3] + r[6,3] >= -1
 mccormick3[6,4]: - y[6,4] - u[6,4] + r[6,4] >= -1
 mccormick3[6,5]: - y[6,5] - u[6,5] + r[6,5] >= -1
 mccormick3[6,7]: - y[6,7] - u[6,7] + r[6,7] >= -1
 mccormick3[6,8]: - y[6,8] - u[6,8] + r[6,8] >= -1
 mccormick3[6,9]: - y[6,9] - u[6,9] + r[6,9] >= -1
 mccormick3[7,0]: - y[7,0] - u[7,0] + r[7,0] >= -1
 mccormick3[7,2]: - y[7,2] - u[7,2] + r[7,2] >= -1
 mccormick3[7,6]: - y[7,6] - u[7,6] + r[7,6] >= -1
 mccormick3[7,8]: - y[7,8] - u[7,8] + r[7,8] >= -1
 mccormick3[7,9]: - y[7,9] - u[7,9] + r[7,9] >= -1
 mccormick3[8,0]: - y[8,0] - u[8,0] + r[8,0] >= -1
 mccormick3[8,1]: - y[8,1] - u[8,1] + r[8,1] >= -1
 mccormick3[8,2]: - y[8,2] - u[8,2] + r[8,2] >= -1
 mccormick3[8,3]: - y[8,3] - u[8,3] + r[8,3] >= -1
 mccormick3[8,4]: - y[8,4] - u[8,4] + r[8,4] >= -1
 mccormick3[8,5]: - y[8,5] - u[8,5] + r[8,5] >= -1
 mccormick3[8,6]: - y[8,6] - u[8,6] + r[8,6] >= -1
 mccormick3[8,7]: - y[8,7] - u[8,7] + r[8,7] >= -1
 mccormick3[8,9]: - y[8,9] - u[8,9] + r[8,9] >= -1
 mccormick3[9,0]: - y[9,0] - u[9,0] + r[9,0] >= -1
 mccormick3[9,1]: - y[9,1] - u[9,1] + r[9,1] >= -1
 mccormick3[9,2]: - y[9,2] - u[9,2] + r[9,2] >= -1
 mccormick3[9,3]: - y[9,3] - u[9,3] + r[9,3] >= -1
 mccormick3[9,4]: - y[9,4] - u[9,4] + r[9,4] >= -1
 mccormick3[9,5]: - y[9,5] - u[9,5] + r[9,5] >= -1
 mccormick3[9,6]: - y[9,6] - u[9,6] + r[9,6] >= -1
 mccormick3[9,7]: - y[9,7] - u[9,7] + r[9,7] >= -1
 mccormick3[9,8]: - y[9,8] - u[9,8] + r[9,8] >= -1
Bounds
Binaries
 y[0,2] y[0,3] y[0,5] y[0,6] y[0,7] y[0,8] y[0,9] y[1,2] y[1,3] y[1,4]
 y[1,6] y[1,8] y[1,9] y[2,0] y[2,1] y[2,3] y[2,5] y[2,6] y[2,7] y[2,8]
 y[2,9] y[3,0] y[3,1] y[3,2] y[3,4] y[3,5] y[3,6] y[3,8] y[3,9] y[4,1]
 y[4,3] y[4,6] y[4,8] y[4,9] y[5,0] y[5,2] y[5,3] y[5,6] y[5,8] y[5,9]
 y[6,0] y[6,1] y[6,2] y[6,3] y[6,4] y[6,5] y[6,7] y[6,8] y[6,9] y[7,0]
 y[7,2] y[7,6] y[7,8] y[7,9] y[8,0] y[8,1] y[8,2] y[8,3] y[8,4] y[8,5]
 y[8,6] y[8,7] y[8,9] y[9,0] y[9,1] y[9,2] y[9,3] y[9,4] y[9,5] y[9,6]
 y[9,7] y[9,8] u[0,2] u[0,3] u[0,5] u[0,6] u[0,7] u[0,8] u[0,9] u[1,2]
 u[1,3] u[1,4] u[1,6] u[1,8] u[1,9] u[2,0] u[2,1] u[2,3] u[2,5] u[2,6]
 u[2,7] u[2,8] u[2,9] u[3,0] u[3,1] u[3,2] u[3,4] u[3,5] u[3,6] u[3,8]
 u[3,9] u[4,1] u[4,3] u[4,6] u[4,8] u[4,9] u[5,0] u[5,2] u[5,3] u[5,6]
 u[5,8] u[5,9] u[6,0] u[6,1] u[6,2] u[6,3] u[6,4] u[6,5] u[6,7] u[6,8]
 u[6,9] u[7,0] u[7,2] u[7,6] u[7,8] u[7,9] u[8,0] u[8,1] u[8,2] u[8,3]
 u[8,4] u[8,5] u[8,6] u[8,7] u[8,9] u[9,0] u[9,1] u[9,2] u[9,3] u[9,4]
 u[9,5] u[9,6] u[9,7] u[9,8] r[0,2] r[0,3] r[0,5] r[0,6] r[0,7] r[0,8]
 r[0,9] r[1,2] r[1,3] r[1,4] r[1,6] r[1,8] r[1,9] r[2,0] r[2,1] r[2,3]
 r[2,5] r[2,6] r[2,7] r[2,8] r[2,9] r[3,0] r[3,1] r[3,2] r[3,4] r[3,5]
 r[3,6] r[3,8] r[3,9] r[4,1] r[4,3] r[4,6] r[4,8] r[4,9] r[5,0] r[5,2]
 r[5,3] r[5,6] r[5,8] r[5,9] r[6,0] r[6,1] r[6,2] r[6,3] r[6,4] r[6,5]
 r[6,7] r[6,8] r[6,9] r[7,0] r[7,2] r[7,6] r[7,8] r[7,9] r[8,0] r[8,1]
 r[8,2] r[8,3] r[8,4] r[8,5] r[8,6] r[8,7] r[8,9] r[9,0] r[9,1] r[9,2]
 r[9,3] r[9,4] r[9,5] r[9,6] r[9,7] r[9,8]
End
